\ Model RMP
\ LP format - for model browsing. Use MPS format to capture full model detail.
Minimize
 
Subject To
 capacity_cons: - Artificial <= 625
 capacity_cons: - Artificial <= 625
 capacity_cons: - Artificial <= 625
 capacity_cons: - Artificial <= 625
 capacity_cons: - Artificial <= 625
 capacity_cons: - Artificial <= 625
 capacity_cons: - Artificial <= 625
 capacity_cons: - Artificial <= 625
 capacity_cons: - Artificial <= 625
 capacity_cons: - Artificial <= 625
 capacity_cons: - Artificial <= 625
 capacity_cons: - Artificial <= 625
 capacity_cons: - Artificial <= 625
 capacity_cons: - Artificial <= 625
 capacity_cons: - Artificial <= 625
 capacity_cons: - Artificial <= 625
 capacity_cons: - Artificial <= 625
 capacity_cons: - Artificial <= 625
 capacity_cons: - Artificial <= 625
 capacity_cons: - Artificial <= 625
 capacity_cons: - Artificial <= 625
 convex_cons: Artificial = 1
Bounds
End
